LengthSchedulingHorizon=325;
nAttributes=2;
SetupCosts=[[0, 0], [1, 2], [2, 3]];
SetupTimes=[[0, 0], [0, 2], [2, 1]];
nMachines=5;
MinCap=[0, 0, 0, 0, 0];
MaxCap=[19, 10, 19, 13, 18];

initState=[2, 2, 2, 2, 2];
nShifts=5;
ShiftStartTimes = [[12, 93, 118, 146, 183], [0, 0, 41, 271, 305], [0, 0, 0, 0, 0], [19, 29, 64, 272, 283], [0, 0, 0, 43, 59]];
ShiftEndTimes = [[85, 118, 144, 179, 308], [0, 0, 247, 300, 321], [0, 0, 0, 0, 323], [28, 61, 235, 281, 325], [0, 0, 0, 56, 290]];
nJobs=25;
EligibleMachines = [{4}, {1, 2}, {1, 2, 3}, {3, 5}, {1, 2, 3}, {1, 2, 4, 5}, {1, 2}, {2, 3, 5}, {3}, {2, 3, 4}, {1, 3, 4, 5}, {1, 5}, {1, 2, 4}, {2, 3, 4, 5}, {5}, {3, 5}, {1}, {1, 2, 3, 4}, {1, 2, 4, 5}, {2}, {1, 2, 3, 5}, {1, 3}, {1, 3, 4, 5}, {2, 4, 5}, {2, 5}];
EarliestStart=[50, 37, 6, 57, 7, 65, 45, 12, 59, 50, 54, 32, 10, 18, 65, 45, 10, 43, 54, 29, 32, 18, 2, 10, 20];
LatestEnd=[60, 48, 17, 76, 9, 72, 64, 17, 67, 52, 63, 44, 17, 32, 68, 58, 20, 46, 61, 31, 37, 27, 17, 11, 25];
MinTime=[10, 10, 9, 10, 2, 5, 10, 3, 7, 2, 5, 7, 7, 8, 2, 7, 9, 2, 4, 2, 3, 8, 9, 1, 3];
MaxTime=[10, 10, 9, 10, 6, 10, 10, 9, 7, 6, 5, 10, 7, 9, 10, 10, 9, 9, 7, 2, 6, 8, 9, 2, 3];
JobSize=[2, 4, 1, 3, 1, 1, 2, 4, 5, 1, 2, 4, 2, 1, 4, 2, 1, 1, 2, 2, 4, 3, 4, 1, 3];
Attribute=[1, 1, 1, 1, 1, 1, 2, 2, 1, 2, 2, 1, 1, 1, 2, 2, 2, 2, 1, 2, 1, 2, 2, 2, 2];

upper_bound_integer_objective=15750;
mult_factor_total_runtime=4;
mult_factor_finished_toolate=600;
mult_factor_total_setuptimes=0;
mult_factor_total_setupcosts=2;
running_time_bound=145;
min_duration=1;
max_duration=10;
max_setup_time=2;
max_setup_cost=3;
